pseudo-Boolean proof version 2.0
@objective soli x7 x9 x12
rup 1 ~x12 1 ~x7 >= 1 ;
rup 1 ~x12 >= 1 ;
a 1 ~x1 1 ~x3 1 ~x9 >= 2 ;
p -1 @objective +
rup 1 ~x11 1 ~x10 >= 1 ;
rup 1 ~x11 >= 1 ;
@objective soli x1 x2 x5 x8
rup 1 ~x8 1 ~x5 >= 1 ;
rup 1 ~x8 >= 1 ;
a 1 ~x1 1 ~x3 1 ~x5 1 ~x7 >= 3 ;
a 1 ~x2 1 ~x4 1 ~x9 >= 2 ;
a 1 ~x5 1 ~x6 1 ~x10 >= 2 ;
p -1 -2 + -3 + @objective +
rup >= 1 ;
output NONE
conclusion BOUNDS 8 8
end pseudo-Boolean proof
